n_res = 4;
rcap = [12, 12, 83, 78];
rtype = [1, 1, 2, 2];
n_tasks = 14;
modes = [ {1, 2, 3}, {4, 5, 6}, {7, 8, 9}, {10, 11, 12}, {13, 14, 15}, {16, 17, 18}, {19, 20, 21}, {22, 23, 24}, {25, 26, 27}, {28, 29, 30}, {31, 32, 33}, {34, 35, 36}, {37, 38, 39}, {40, 41, 42} ];
succ = [ {5, 7, 9}, {5, 7, 9}, {4, 6, 7}, {5, 14}, {12, 13}, {9, 13, 14}, {8}, {10}, {12}, {11, 14}, {12, 13}, {}, {}, {} ];
n_opt = 42;
dur = [3, 8, 9, 4, 5, 9, 5, 8, 8, 5, 9, 10, 7, 8, 8, 1, 7, 9, 3, 4, 6, 2, 6, 8, 2, 4, 5, 1, 4, 4, 3, 5, 9, 9, 10, 10, 2, 5, 6, 4, 4, 9];
rreq = [|  7,  7,  6,  3,  3,  2,  9,  4,  5,  5,  3,  2,  7,  6,  5,  3,  3,  2,  2,  2,  1,  9,  8,  8,  5,  5,  3,  9,  9,  9,  8,  7,  6,  7,  7,  6,  8,  5,  2,  5,  4,  3
        |  9,  9,  8,  2,  2,  1,  6,  3,  4,  3,  3,  3,  8,  7,  7,  9,  5,  2,  5,  5,  4,  5,  4,  4,  4,  3,  2,  6,  5,  5,  9,  9,  8,  8,  7,  7,  6,  5,  4,  8,  6,  4
        |  7,  6,  6, 10,  9,  9,  9,  8,  6,  4,  4,  4,  9,  5,  7,  7,  7,  7,  5,  2,  1,  7,  7,  1,  4,  4,  3,  6,  2,  4,  8,  5,  2,  2,  1,  2,  8,  8,  8,  4,  5,  4
        | 10,  7,  7,  7,  6,  5,  7,  2,  5,  4,  3,  3,  7,  6,  6,  3,  3,  3,  8,  6,  5,  6,  5,  2,  5,  5,  2,  4,  4,  3,  5,  3,  2,  7,  5,  6,  7,  5,  5,  5,  5,  5 |];
